p cnf 53 186
1 2 3 4 5 0
27 28 29 30 31 32 0
33 34 35 36 37 38 39 0
-1 -6 0
-1 -15 0
-1 -21 0
-1 -27 0
-1 -33 0
-1 -40 0
-1 -44 0
-1 -50 0
-6 -15 0
-6 -21 0
-6 -27 0
-6 -33 0
-6 -40 0
-6 -44 0
-6 -50 0
-15 -21 0
-15 -27 0
-15 -33 0
-15 -40 0
-15 -44 0
-15 -50 0
-21 -27 0
-21 -33 0
-21 -40 0
-21 -44 0
-21 -50 0
-27 -33 0
-27 -40 0
-27 -44 0
-27 -50 0
-33 -40 0
-33 -44 0
-33 -50 0
-40 -44 0
-40 -50 0
-44 -50 0
-2 -16 0
-2 -22 0
-2 -28 0
-2 -34 0
-2 -45 0
-2 -51 0
-16 -22 0
-16 -28 0
-16 -34 0
-16 -45 0
-16 -51 0
-22 -28 0
-22 -34 0
-22 -45 0
-22 -51 0
-28 -34 0
-28 -45 0
-28 -51 0
-34 -45 0
-34 -51 0
-45 -51 0
-3 -7 0
-3 -10 0
-3 -23 0
-3 -35 0
-7 -10 0
-7 -23 0
-7 -35 0
-10 -23 0
-10 -35 0
-23 -35 0
-8 -11 0
-8 -17 0
-8 -24 0
-8 -29 0
-8 -36 0
-8 -41 0
-8 -46 0
-11 -17 0
-11 -24 0
-11 -29 0
-11 -36 0
-11 -41 0
-11 -46 0
-17 -24 0
-17 -29 0
-17 -36 0
-17 -41 0
-17 -46 0
-24 -29 0
-24 -36 0
-24 -41 0
-24 -46 0
-29 -36 0
-29 -41 0
-29 -46 0
-36 -41 0
-36 -46 0
-41 -46 0
-4 -9 0
-4 -12 0
-4 -18 0
-4 -25 0
-4 -30 0
-4 -37 0
-4 -42 0
-4 -47 0
-4 -52 0
-9 -12 0
-9 -18 0
-9 -25 0
-9 -30 0
-9 -37 0
-9 -42 0
-9 -47 0
-9 -52 0
-12 -18 0
-12 -25 0
-12 -30 0
-12 -37 0
-12 -42 0
-12 -47 0
-12 -52 0
-18 -25 0
-18 -30 0
-18 -37 0
-18 -42 0
-18 -47 0
-18 -52 0
-25 -30 0
-25 -37 0
-25 -42 0
-25 -47 0
-25 -52 0
-30 -37 0
-30 -42 0
-30 -47 0
-30 -52 0
-37 -42 0
-37 -47 0
-37 -52 0
-42 -47 0
-42 -52 0
-47 -52 0
-5 -13 0
-5 -19 0
-5 -26 0
-5 -31 0
-5 -38 0
-5 -48 0
-5 -53 0
-13 -19 0
-13 -26 0
-13 -31 0
-13 -38 0
-13 -48 0
-13 -53 0
-19 -26 0
-19 -31 0
-19 -38 0
-19 -48 0
-19 -53 0
-26 -31 0
-26 -38 0
-26 -48 0
-26 -53 0
-31 -38 0
-31 -48 0
-31 -53 0
-38 -48 0
-38 -53 0
-48 -53 0
-14 -20 0
-14 -32 0
-14 -39 0
-14 -43 0
-14 -49 0
-20 -32 0
-20 -39 0
-20 -43 0
-20 -49 0
-32 -39 0
-32 -43 0
-32 -49 0
-39 -43 0
-39 -49 0
-43 -49 0
